38
2256 6408 16470 41382 42288 43848 45722 45918 46946 76394 87748 89380 91128 133200 140016 144458 179500 180988 186582 211733 216312 219580 221188 229062 230546 256903 261984 262848 268468 275496 286754 301974 308550 310348 312122 316852 317644 323357 